c read Graph
c width = 97
c time = 72 ms
c width = 14
c time = 127 ms
c width = 12
c time = 158 ms
c width = 11
c time = 517 ms
c width = 10
c time = 2236 ms
c width = 10
c time = 5077 ms
s td 95 11 110
b 1 1 2 12
b 2 2 3 12 13
b 3 9 10 21 22
b 4 3 12 13 23
b 5 9 21 22 33
b 6 78 89 90 101
b 7 88 98 99 109
b 8 78 90 101 102
b 9 88 98 108 109
b 10 3 4 5 15
b 11 3 5 14 15 24 34
b 12 3 14 23 24 34
b 13 3 13 14 23 24
b 14 5 14 15 24 26 34 36
b 15 5 15 24 26 34 36 46
b 16 24 34 35 36 46
b 17 14 24 25 26 36
b 18 5 9 15 16 17 19 26 29 34 36 46
b 19 9 16 17 19 26 27 29 34 36 46
b 20 9 17 19 26 27 28 29 34 36 46
b 21 9 19 20 26 27 28 29 30 34 36 46
b 22 9 20 26 27 28 29 30 34 36 37 46
b 23 9 20 27 28 29 30 34 36 37 38 46
b 24 9 20 28 29 30 34 36 37 38 39 46
b 25 9 20 29 30 34 36 37 38 39 40 46
b 26 9 20 30 34 36 37 38 39 40 46 56
b 27 9 20 30 36 37 38 39 40 46 47 56
b 28 9 20 30 37 38 39 40 46 47 48 56
b 29 9 20 30 38 39 40 46 47 48 49 56
b 30 9 20 30 39 40 46 47 48 49 50 56
b 31 9 20 30 40 46 47 48 49 50 56 57
b 32 9 20 30 40 47 48 49 50 56 57 58
b 33 9 20 30 40 48 49 50 56 57 58 59
b 34 9 20 30 40 49 50 56 57 58 59 60
b 35 9 20 30 40 50 56 57 58 59 60 67
b 36 9 20 30 40 50 57 58 59 60 67 68
b 37 9 20 30 40 50 58 59 60 67 68 69
b 38 9 20 30 40 50 59 60 67 68 69 70
b 39 9 20 30 40 50 60 67 68 69 70 78
b 40 9 20 30 40 50 60 68 69 70 78 79
b 41 9 20 30 40 50 60 69 70 78 79 80
b 42 9 20 30 40 50 60 70 78 79 80 90
b 43 9 20 30 40 50 60 70 78 80 90 102
b 44 9 20 30 40 50 60 70 80 90 91 102
b 45 9 20 30 40 50 60 70 80 81 91 102
b 46 9 20 30 40 50 60 70 71 81 91 102
b 47 9 20 30 40 50 60 61 71 81 91 102
b 48 9 20 30 40 50 51 61 71 81 91 102
b 49 9 20 30 40 41 51 61 71 81 91 102
b 50 9 20 30 41 51 61 71 81 91 92 102
b 51 9 20 30 41 51 61 71 81 82 92 102
b 52 9 20 30 41 51 61 71 72 82 92 102
b 53 9 20 30 41 51 61 62 72 82 92 102
b 54 9 20 30 41 51 52 62 72 82 92 102
b 55 9 20 30 41 42 52 62 72 82 92 102
b 56 9 20 30 42 52 62 72 82 92 102 103
b 57 9 20 30 42 52 62 72 82 92 93 103
b 58 9 20 30 42 52 62 72 82 83 93 103
b 59 9 20 30 42 52 62 72 73 83 93 103
b 60 9 20 30 42 52 62 63 73 83 93 103
b 61 9 20 30 42 52 53 63 73 83 93 103
b 62 9 20 30 42 53 63 73 83 93 103 104
b 63 9 20 30 42 53 63 73 83 93 94 104
b 64 9 20 30 42 53 63 73 83 84 94 104
b 65 9 20 30 42 53 63 73 74 84 94 104
b 66 9 20 30 42 53 63 64 74 84 94 104
b 67 9 20 30 42 53 54 64 74 84 94 104
b 68 9 20 30 42 44 54 64 74 84 94 104
b 69 44 54 64 74 75 84 85 94 95 104 105
b 70 34 45 46 56
b 71 5 7 9 17 19 29
b 72 5 6 7 17
b 73 7 8 9 19
b 74 7 17 18 19 29
b 75 9 20 30 32 42 44 54
b 76 9 20 32 33 44
b 77 9 20 21 32 33
b 78 32 42 43 44 54
b 79 20 30 31 32 42
b 80 44 54 64 75 85 87 88 95 105
b 81 75 85 87 88 95 105 107
b 82 75 85 87 88 95 97 107
b 83 75 85 86 87 97
b 84 87 88 97 107 108
b 85 87 88 97 98 108
b 86 85 95 96 97 107
b 87 95 105 106 107
b 88 44 54 64 75 76 87 88
b 89 44 54 64 66 76 88
b 90 44 54 55 66
b 91 66 76 77 88
b 92 54 64 65 66 76
b 93 99 109 110
b 94 89 100 101
b 95 10 11 22
1 2
2 4
3 95
3 5
4 13
5 77
6 94
6 8
7 93
7 9
8 43
9 85
10 11
11 14
11 12
12 13
14 17
14 15
15 18
15 16
18 71
18 19
19 20
20 21
21 22
22 23
23 24
24 25
25 26
26 70
26 27
27 28
28 29
29 30
30 31
31 32
32 33
33 34
34 35
35 36
36 37
37 38
38 39
39 40
40 41
41 42
42 43
43 44
44 45
45 46
46 47
47 48
48 49
49 50
50 51
51 52
52 53
53 54
54 55
55 56
56 57
57 58
58 59
59 60
60 61
61 62
62 63
63 64
64 65
65 66
66 67
67 68
68 75
68 69
69 80
71 73
71 74
71 72
75 76
75 78
75 79
76 77
80 81
80 88
81 87
81 82
82 84
82 86
82 83
84 85
88 89
89 92
89 90
89 91
